(set-info :smt-lib-version 2.6)
(set-logic QF_FP)
(set-option :produce-models true)
(set-info :source |Random FP created by PyMPF|)
(set-info :license |https://www.gnu.org/licenses/gpl-3.0.html|)
(set-info :category random)
(set-info :status sat)
(declare-const x Float32)
(assert (= x ((_ to_fp 8 24) #xFA6AA300)))
;; x should be Float32(0xFA6AA300 [Rational(-304575874415636221838809885749280768), -304575874415636221838809885749280768.000000])

(declare-const y Float32)
(assert (= y ((_ to_fp 8 24) #xD4660A4A)))
;; y should be Float32(0xD4660A4A [Rational(-3952060399616), -3952060399616.000000])

(declare-const z Float32)
(assert (= z ((_ to_fp 8 24) #xD1E5A95A)))
;; z should be Float32(0xD1E5A95A [Rational(-123298594816), -123298594816.000000])

(declare-const result Float32)
(assert (= result (fp.fma RNA x y z)))
(assert (= result (_ +oo 8 24)))
(check-sat)
(exit)
